sifdecoder -A pc64.lnx.gfo -st   NCVXQP4

 Problem name: NCVXQP4

 Double precision version will be formed

 The objective function uses 10000 nonlinear groups
 
 There are 2500 linear equality constraints
 
 There are 10000 variables bounded from below and above 
 
 
 File successfully decoded
 CUTEST: tools (double precision version) compiled successfully
 CUTEst: ipopt (double precision version) compiled successfully

******************************************************************************
This program contains Ipopt, a library for large-scale nonlinear optimization.
 Ipopt is released as open source code under the Eclipse Public License (EPL).
         For more information visit http://projects.coin-or.org/Ipopt
******************************************************************************

This is Ipopt version trunk, running with linear solver ma57.

Number of nonzeros in equality constraint Jacobian...:     7499
Number of nonzeros in inequality constraint Jacobian.:        0
Number of nonzeros in Lagrangian Hessian.............:    39984

Reallocating memory for MA57: lfact (10131465)
Total number of variables............................:    10000
                     variables with only lower bounds:        0
                variables with lower and upper bounds:    10000
                     variables with only upper bounds:        0
Total number of equality constraints.................:     2500
Total number of inequality constraints...............:        0
        inequality constraints with only lower bounds:        0
   inequality constraints with lower and upper bounds:        0
        inequality constraints with only upper bounds:        0

iter    objective    inf_pr   inf_du lg(mu)  ||d||  lg(rg) alpha_du alpha_pr  ls
   0 -4.9221562e+07 3.00e+00 1.00e+02  -1.0 0.00e+00    -  0.00e+00 0.00e+00   0
   1 -1.1456058e+08 1.33e-15 7.83e+03  -1.0 7.83e-01   4.0 3.66e-01 1.00e+00f  1
   2 -1.1722825e+08 1.78e-15 1.18e+02  -1.0 3.55e-02   3.5 1.00e+00 1.00e+00f  1
   3 -1.2653642e+08 1.78e-15 1.36e+02  -1.0 1.23e-01   3.0 1.00e+00 1.00e+00f  1
   4 -1.7430709e+08 1.78e-15 2.25e+02  -1.0 6.07e-01   2.6 9.37e-01 1.00e+00f  1
   5 -1.9898548e+08 1.78e-15 2.64e+02  -1.0 2.67e-01   3.0 1.00e+00 1.00e+00f  1
   6 -3.4450956e+08 1.33e-15 4.66e+02  -1.0 1.42e+00   2.5 8.52e-01 1.00e+00f  1
   7 -3.9590631e+08 1.78e-15 5.25e+02  -1.0 6.34e-01   2.9 1.00e+00 6.54e-01f  1
   8 -4.0839982e+08 1.78e-15 5.41e+02  -1.0 3.46e+00   2.5 8.38e-01 3.22e-02f  1
   9 -4.4105115e+08 1.78e-15 5.76e+02  -1.0 8.45e-01   2.9 1.00e+00 2.97e-01f  1
iter    objective    inf_pr   inf_du lg(mu)  ||d||  lg(rg) alpha_du alpha_pr  ls
  10 -5.0727438e+08 1.78e-15 6.54e+02  -1.0 4.76e+00   2.4 7.18e-01 1.17e-01f  1
  11 -5.5876657e+08 1.78e-15 7.05e+02  -1.0 1.18e+00   2.8 1.00e+00 3.09e-01f  1
  12 -6.2323932e+08 1.78e-15 7.78e+02  -1.0 7.61e+00   2.4 5.67e-01 6.89e-02f  1
  13 -6.3875602e+08 1.78e-15 7.92e+02  -1.0 1.63e+00   2.8 1.00e+00 6.47e-02f  1
  14 -7.2904518e+08 2.00e-15 8.95e+02  -1.0 1.17e+01   2.3 4.36e-01 6.40e-02f  1
  15 -7.5245359e+08 2.00e-15 9.16e+02  -1.0 2.17e+00   2.7 1.00e+00 7.08e-02f  1
  16 -8.5665775e+08 2.22e-15 1.03e+03  -1.0 1.75e+01   2.3 3.18e-01 4.81e-02f  1
  17 -9.1945235e+08 2.22e-15 1.08e+03  -1.0 2.87e+00   2.7 1.00e+00 1.40e-01f  1
  18 -1.0442871e+09 2.11e-15 1.26e+03  -1.0 3.36e+01   2.2 1.95e-01 3.45e-02f  1
  19 -1.1125674e+09 2.44e-15 1.28e+03  -1.0 4.04e+00   2.6 1.00e+00 1.09e-01f  1
iter    objective    inf_pr   inf_du lg(mu)  ||d||  lg(rg) alpha_du alpha_pr  ls
  20 -1.1894236e+09 2.00e-15 1.40e+03  -1.0 8.45e+01   2.2 9.31e-02 1.14e-02f  1
  21 -1.1983493e+09 2.33e-15 1.28e+03  -1.0 4.98e+00   2.6 1.00e+00 1.09e-02f  1
  22 -1.2805786e+09 2.22e-15 1.35e+03  -1.0 2.02e+02   2.1 3.63e-02 5.40e-03f  1
  23 -1.3301413e+09 2.66e-15 1.22e+03  -1.0 5.42e+00   2.5 1.00e+00 4.87e-02f  1
  24 -1.4042827e+09 2.00e-15 1.24e+03  -1.0 1.51e+00   3.0 1.00e+00 2.43e-01f  1
  25 -1.5177601e+09 2.16e-15 1.22e+03  -1.0 6.27e+00   2.5 1.00e+00 8.93e-02f  1
  26 -1.5915295e+09 1.89e-15 1.23e+03  -1.0 1.71e+00   2.9 1.00e+00 1.94e-01f  1
  27 -1.6993283e+09 2.00e-15 1.21e+03  -1.0 7.51e+00   2.4 1.00e+00 6.59e-02f  1
  28 -1.7775798e+09 1.89e-15 1.21e+03  -1.0 1.93e+00   2.9 1.00e+00 1.68e-01f  1
  29 -1.8882110e+09 1.83e-15 1.18e+03  -1.0 8.96e+00   2.4 8.55e-01 5.29e-02f  1
iter    objective    inf_pr   inf_du lg(mu)  ||d||  lg(rg) alpha_du alpha_pr  ls
  30 -1.9666545e+09 2.00e-15 1.17e+03  -1.0 2.17e+00   2.8 1.00e+00 1.38e-01f  1
  31 -2.0925139e+09 2.33e-15 1.15e+03  -1.0 1.08e+01   2.3 6.75e-01 4.70e-02f  1
  32 -2.1804200e+09 2.16e-15 1.15e+03  -1.0 2.42e+00   2.8 1.00e+00 1.28e-01f  1
  33 -2.3268498e+09 2.33e-15 1.13e+03  -1.0 1.32e+01   2.3 6.30e-01 4.31e-02f  1
  34 -2.4262374e+09 2.22e-15 1.10e+03  -1.0 2.68e+00   2.7 1.00e+00 1.20e-01f  1
  35 -2.6093083e+09 3.00e-15 1.11e+03  -1.0 1.65e+01   2.2 3.66e-01 4.10e-02f  1
  36 -2.6926215e+09 2.55e-15 1.08e+03  -1.0 3.07e+00   2.7 1.00e+00 8.30e-02f  1
  37 -2.8885073e+09 2.66e-15 1.09e+03  -1.0 2.14e+01   2.2 1.87e-01 3.34e-02f  1
  38 -2.9659680e+09 2.44e-15 1.05e+03  -1.0 3.46e+00   2.6 1.00e+00 6.46e-02f  1
  39 -3.1575964e+09 2.33e-15 1.07e+03  -1.0 3.10e+01   2.1 9.55e-02 2.51e-02f  1
iter    objective    inf_pr   inf_du lg(mu)  ||d||  lg(rg) alpha_du alpha_pr  ls
  40 -3.2240686e+09 2.66e-15 1.02e+03  -1.0 3.95e+00   2.6 1.00e+00 4.80e-02f  1
  41 -3.3752552e+09 2.66e-15 1.06e+03  -1.0 5.30e+01   2.1 4.89e-02 1.48e-02f  1
  42 -3.4283798e+09 2.72e-15 9.97e+02  -1.0 4.54e+00   2.5 1.00e+00 3.36e-02f  1
  43 -3.5719097e+09 2.94e-15 1.04e+03  -1.0 1.18e+02   2.0 2.48e-02 8.71e-03f  1
  44 -3.6058736e+09 2.78e-15 9.55e+02  -1.0 5.10e+00   2.4 1.00e+00 1.88e-02f  1
  45 -3.7381367e+09 2.61e-15 9.67e+02  -1.0 1.42e+00   2.9 1.00e+00 2.41e-01f  1
  46 -3.9043527e+09 2.28e-15 9.54e+02  -1.0 5.81e+00   2.4 1.00e+00 8.43e-02f  1
  47 -4.0044595e+09 2.05e-15 9.61e+02  -1.0 1.61e+00   2.8 1.00e+00 1.65e-01f  1
  48 -4.1635800e+09 2.05e-15 9.58e+02  -1.0 6.99e+00   2.3 4.88e-01 7.06e-02f  1
  49 -4.2389704e+09 2.22e-15 9.44e+02  -1.0 1.86e+00   2.8 1.00e+00 1.11e-01f  1
iter    objective    inf_pr   inf_du lg(mu)  ||d||  lg(rg) alpha_du alpha_pr  ls
  50 -4.3829043e+09 2.11e-15 9.54e+02  -1.0 8.41e+00   2.3 1.30e-01 5.56e-02f  1
  51 -4.4199552e+09 2.44e-15 9.33e+02  -1.0 2.13e+00   2.7 1.00e+00 4.85e-02f  1
  52 -4.5509862e+09 2.28e-15 9.56e+02  -1.0 1.02e+01   2.2 7.47e-02 4.33e-02f  1
  53 -4.5870929e+09 2.44e-15 9.17e+02  -1.0 2.40e+00   2.7 1.00e+00 4.21e-02f  1
  54 -4.7141990e+09 2.55e-15 9.41e+02  -1.0 1.27e+01   2.2 4.70e-02 3.61e-02f  1
  55 -4.7404597e+09 2.66e-15 9.03e+02  -1.0 2.74e+00   2.6 1.00e+00 2.76e-02f  1
  56 -4.8654292e+09 2.66e-15 9.19e+02  -1.0 1.55e+01   2.1 3.60e-02 2.95e-02f  1
  57 -4.9029391e+09 2.83e-15 8.75e+02  -1.0 3.04e+00   2.6 1.00e+00 3.48e-02f  1
  58 -5.0523832e+09 3.00e-15 9.08e+02  -1.0 2.09e+01   2.1 1.13e-02 2.86e-02f  1
  59 -5.0821669e+09 2.78e-15 8.74e+02  -1.0 3.57e+00   2.5 7.37e-01 2.40e-02f  1
iter    objective    inf_pr   inf_du lg(mu)  ||d||  lg(rg) alpha_du alpha_pr  ls
  60 -5.1871360e+09 2.94e-15 9.07e+02  -1.0 3.20e+01   2.0 1.14e-02 1.54e-02f  1
  61 -5.2081166e+09 2.78e-15 8.56e+02  -1.0 4.13e+00   2.5 1.00e+00 1.49e-02f  1
  62 -5.3217652e+09 3.00e-15 8.90e+02  -1.0 5.76e+01   2.0 2.80e-03 1.25e-02f  1
  63 -5.3359636e+09 3.11e-15 8.49e+02  -1.0 4.78e+00   2.4 6.71e-01 8.95e-03f  1
  64 -5.4209629e+09 2.89e-15 8.75e+02  -1.0 1.79e+02   1.9 2.75e-03 6.66e-03f  1
  65 -5.4392756e+09 3.11e-15 8.18e+02  -1.0 5.42e+00   2.4 9.47e-01 1.04e-02f  1
  66 -5.4913665e+09 2.66e-15 8.17e+02  -1.0 1.48e+00   2.8 1.00e+00 9.44e-02f  1
  67 -5.6368304e+09 2.89e-15 8.15e+02  -1.0 5.78e+00   2.3 8.04e-01 7.70e-02f  1
  68 -5.7329896e+09 2.61e-15 8.20e+02  -1.0 1.65e+00   2.7 1.00e+00 1.57e-01f  1
  69 -5.8872526e+09 2.72e-15 8.25e+02  -1.0 6.77e+00   2.3 2.75e-01 7.16e-02f  1
iter    objective    inf_pr   inf_du lg(mu)  ||d||  lg(rg) alpha_du alpha_pr  ls
  70 -5.9556491e+09 2.39e-15 8.13e+02  -1.0 1.91e+00   2.7 1.00e+00 9.92e-02f  1
  71 -6.1058816e+09 2.66e-15 8.33e+02  -1.0 8.43e+00   2.2 1.38e-01 6.15e-02f  1
  72 -6.1394770e+09 2.66e-15 8.04e+02  -1.0 2.18e+00   2.6 1.00e+00 4.48e-02f  1
  73 -6.2644731e+09 2.66e-15 8.09e+02  -1.0 1.01e+01   2.2 7.27e-02 4.64e-02f  1
  74 -6.2909943e+09 2.66e-15 7.79e+02  -1.0 2.34e+00   2.6 1.00e+00 3.28e-02f  1
  75 -6.4277651e+09 2.66e-15 7.91e+02  -1.0 1.09e+01   2.1 2.43e-02 4.35e-02f  1
  76 -6.4506227e+09 2.83e-15 7.84e+02  -1.0 2.69e+00   2.5 8.43e-01 2.53e-02f  1
  77 -6.5677244e+09 2.83e-15 7.77e+02  -1.0 1.32e+01   2.1 3.96e-03 3.20e-02f  1
  78 -6.5849748e+09 3.00e-15 7.88e+02  -1.0 2.99e+00   2.5 5.51e-01 1.74e-02f  1
  79 -6.6822475e+09 3.00e-15 7.62e+02  -1.0 1.77e+01   2.0 2.86e-03 2.31e-02f  1
iter    objective    inf_pr   inf_du lg(mu)  ||d||  lg(rg) alpha_du alpha_pr  ls
  80 -6.6956639e+09 2.78e-15 7.81e+02  -1.0 3.39e+00   2.4 3.18e-01 1.27e-02f  1
  81 -6.7818852e+09 2.89e-15 7.59e+02  -1.0 3.34e+01   2.0 1.57e-03 1.65e-02f  1
  82 -6.7973070e+09 3.00e-15 8.00e+02  -1.0 3.89e+00   2.4 2.24e-01 1.32e-02f  1
  83 -6.8846135e+09 3.22e-15 7.83e+02  -1.0 1.34e+02   1.9 1.01e-03 1.12e-02f  1
  84 -6.8934303e+09 3.16e-15 9.39e+02  -1.0 4.70e+00   2.3 7.00e-01 6.69e-03f  1
  85 -6.9461127e+09 3.33e-15 7.49e+02  -1.0 1.35e+00   2.8 1.00e+00 1.24e-01f  1
  86 -7.0390809e+09 3.33e-15 8.87e+02  -1.0 5.78e+00   2.3 6.23e-01 6.72e-02f  1
  87 -7.0892122e+09 3.33e-15 7.66e+02  -1.0 1.61e+00   2.7 1.00e+00 1.10e-01f  1
  88 -7.1681693e+09 3.77e-15 8.25e+02  -1.0 7.17e+00   2.2 4.34e-01 4.90e-02f  1
  89 -7.2493481e+09 3.11e-15 7.13e+02  -1.0 1.85e+00   2.7 1.00e+00 1.58e-01f  1
iter    objective    inf_pr   inf_du lg(mu)  ||d||  lg(rg) alpha_du alpha_pr  ls
  90 -7.3233173e+09 2.89e-15 7.12e+02  -1.0 8.56e+00   2.2 2.20e-01 4.01e-02f  1
  91 -7.3670785e+09 3.55e-15 8.66e+02  -1.0 2.06e+00   2.6 1.00e+00 7.83e-02f  1
  92 -7.4792303e+09 3.22e-15 8.57e+02  -1.0 1.09e+01   2.1 1.38e-01 5.47e-02f  1
  93 -7.5080307e+09 3.11e-15 8.98e+02  -1.0 2.42e+00   2.6 1.00e+00 4.82e-02f  1
  94 -7.5898819e+09 2.89e-15 8.74e+02  -1.0 1.41e+01   2.1 6.66e-02 3.72e-02f  1
  95 -7.6136676e+09 3.00e-15 1.04e+03  -1.0 2.75e+00   2.5 1.00e+00 3.79e-02f  1
  96 -7.6873292e+09 2.89e-15 1.02e+03  -1.0 1.79e+01   2.0 5.54e-02 3.13e-02f  1
  97 -7.7061278e+09 2.72e-15 9.95e+02  -1.0 3.05e+00   2.4 1.00e+00 2.89e-02f  1
  98 -7.7688860e+09 3.16e-15 9.67e+02  -1.0 2.39e+01   2.0 1.95e-02 2.54e-02f  1
  99 -7.7809064e+09 2.94e-15 9.54e+02  -1.0 3.47e+00   2.4 4.54e-01 1.77e-02f  1
iter    objective    inf_pr   inf_du lg(mu)  ||d||  lg(rg) alpha_du alpha_pr  ls
 100 -7.8213002e+09 2.89e-15 9.34e+02  -1.0 2.87e+01   1.9 4.88e-03 1.47e-02f  1
 101 -7.8372044e+09 3.61e-15 9.23e+02  -1.0 3.80e+00   2.3 2.99e-01 2.17e-02f  1
 102 -7.8918740e+09 3.61e-15 9.04e+02  -1.0 3.13e+01   1.9 6.71e-03 1.73e-02f  1
 103 -7.8980798e+09 3.22e-15 8.97e+02  -1.0 4.20e+00   2.3 2.12e-01 7.77e-03f  1
 104 -7.9359621e+09 3.44e-15 8.87e+02  -1.0 5.06e+01   1.8 7.13e-03 1.03e-02f  1
 105 -7.9470250e+09 3.16e-15 8.72e+02  -1.0 4.73e+00   2.2 1.72e-01 1.29e-02f  1
 106 -7.9865176e+09 3.28e-15 8.63e+02  -1.0 5.01e+01   1.8 3.01e-03 8.66e-03f  1
 107 -8.0074684e+09 3.44e-15 8.43e+02  -1.0 5.55e+00   2.2 1.21e-01 2.24e-02f  1
 108 -8.0389981e+09 3.44e-15 8.37e+02  -1.0 1.51e+02   1.7 1.44e-03 4.63e-03f  1
 109 -8.0453684e+09 3.83e-15 8.32e+02  -1.0 6.51e+00   2.1 8.61e-02 6.25e-03f  1
iter    objective    inf_pr   inf_du lg(mu)  ||d||  lg(rg) alpha_du alpha_pr  ls
 110 -8.0629852e+09 3.39e-15 7.22e+02  -1.0 1.87e+00   2.6 1.00e+00 4.98e-02f  1
 111 -8.1024193e+09 3.72e-15 6.99e+02  -1.0 7.27e+00   2.1 8.39e-02 4.01e-02f  1
 112 -8.1155917e+09 3.55e-15 7.69e+02  -1.0 2.05e+00   2.5 1.00e+00 3.95e-02f  1
 113 -8.1680681e+09 3.33e-15 7.30e+02  -1.0 8.48e+00   2.0 6.09e-02 5.21e-02f  1
 114 -8.1740762e+09 3.33e-15 8.01e+02  -1.0 2.25e+00   2.5 1.00e+00 1.81e-02f  1
 115 -8.2246945e+09 3.16e-15 7.63e+02  -1.0 9.73e+00   2.0 5.84e-02 4.78e-02f  1
 116 -8.2425429e+09 3.39e-15 7.67e+02  -1.0 2.54e+00   2.4 1.00e+00 5.27e-02f  1
 117 -8.2852749e+09 3.39e-15 7.38e+02  -1.0 1.18e+01   1.9 3.17e-02 3.68e-02f  1
 118 -8.2928412e+09 3.44e-15 8.07e+02  -1.0 2.76e+00   2.4 1.00e+00 2.14e-02f  1
 119 -8.3478923e+09 3.28e-15 7.70e+02  -1.0 1.49e+01   1.9 2.80e-02 4.08e-02f  1
iter    objective    inf_pr   inf_du lg(mu)  ||d||  lg(rg) alpha_du alpha_pr  ls
 120 -8.3568619e+09 3.22e-15 8.16e+02  -1.0 3.07e+00   2.3 9.10e-01 2.32e-02f  1
 121 -8.4094012e+09 3.55e-15 7.82e+02  -1.0 1.96e+01   1.8 1.01e-02 3.25e-02f  1
 122 -8.4138311e+09 3.39e-15 7.98e+02  -1.0 3.39e+00   2.3 5.56e-01 1.04e-02f  1
 123 -8.4655664e+09 3.61e-15 7.69e+02  -1.0 3.58e+01   1.8 6.19e-03 2.52e-02f  1
 124 -8.4682187e+09 3.77e-15 7.86e+02  -1.0 4.11e+00   2.2 3.94e-01 5.55e-03f  1
 125 -8.5042337e+09 4.33e-15 7.69e+02  -1.0 9.76e+01   1.7 2.77e-03 1.23e-02f  1
 126 -8.5094244e+09 3.89e-15 7.77e+02  -1.0 5.21e+00   2.2 2.57e-01 9.70e-03f  1
 127 -8.5271825e+09 4.22e-15 6.44e+02  -1.0 1.46e+00   2.6 1.00e+00 9.20e-02f  1
 128 -8.5436967e+09 4.39e-15 6.44e+02  -1.0 5.72e+00   2.1 1.67e-01 2.95e-02f  1
 129 -8.5806027e+09 3.11e-15 5.70e+02  -1.0 1.60e+00   2.5 1.00e+00 1.83e-01f  1
iter    objective    inf_pr   inf_du lg(mu)  ||d||  lg(rg) alpha_du alpha_pr  ls
 130 -8.6111086e+09 3.11e-15 5.41e+02  -1.0 6.98e+00   2.1 1.08e-01 5.11e-02f  1
 131 -8.6200577e+09 3.11e-15 7.09e+02  -1.0 1.78e+00   2.5 1.00e+00 4.40e-02f  1
 132 -8.6531546e+09 3.22e-15 6.74e+02  -1.0 8.24e+00   2.0 6.38e-02 5.20e-02f  1
 133 -8.6612478e+09 3.11e-15 7.55e+02  -1.0 2.08e+00   2.4 1.00e+00 3.84e-02f  1
 134 -8.6890971e+09 3.22e-15 7.22e+02  -1.0 1.00e+01   2.0 2.83e-02 4.08e-02f  1
 135 -8.6936879e+09 2.89e-15 7.31e+02  -1.0 2.32e+00   2.4 9.93e-01 2.11e-02f  1
 136 -8.7297788e+09 3.39e-15 6.97e+02  -1.0 1.28e+01   1.9 1.74e-02 4.81e-02f  1
 137 -8.7329910e+09 3.44e-15 6.71e+02  -1.0 2.75e+00   2.3 7.21e-01 1.43e-02f  1
 138 -8.7592457e+09 3.33e-15 6.49e+02  -1.0 1.81e+01   1.9 7.14e-03 3.12e-02f  1
 139 -8.7613484e+09 3.50e-15 6.55e+02  -1.0 3.22e+00   2.3 4.78e-01 8.95e-03f  1
iter    objective    inf_pr   inf_du lg(mu)  ||d||  lg(rg) alpha_du alpha_pr  ls
 140 -8.7786185e+09 3.66e-15 6.43e+02  -1.0 2.56e+01   1.8 3.03e-03 1.73e-02f  1
 141 -8.7805322e+09 3.89e-15 6.44e+02  -1.0 3.76e+00   2.2 3.24e-01 7.61e-03f  1
 142 -8.7974914e+09 3.44e-15 6.35e+02  -1.0 5.45e+01   1.7 1.61e-03 1.36e-02f  1
 143 -8.8002340e+09 3.50e-15 7.31e+02  -1.0 4.26e+00   2.2 2.47e-01 1.01e-02f  1
 144 -8.8029654e+09 4.00e-15 7.29e+02  -1.0 4.73e+02   1.7 3.81e-04 1.33e-03f  1
 145 -8.8040765e+09 4.55e-15 8.26e+02  -1.0 5.03e+00   2.1 1.88e-01 3.81e-03f  1
 146 -8.8198866e+09 3.72e-15 8.77e+02  -1.0 1.42e+00   2.5 1.00e+00 1.42e-01f  1
 147 -8.8365650e+09 3.66e-15 8.47e+02  -1.0 5.58e+00   2.1 1.19e-01 5.48e-02f  1
 148 -8.8419022e+09 3.72e-15 9.56e+02  -1.0 1.57e+00   2.5 1.00e+00 4.80e-02f  1
 149 -8.8613796e+09 3.05e-15 9.01e+02  -1.0 6.70e+00   2.0 8.90e-02 6.18e-02f  1
iter    objective    inf_pr   inf_du lg(mu)  ||d||  lg(rg) alpha_du alpha_pr  ls
 150 -8.8652088e+09 3.44e-15 9.12e+02  -1.0 1.75e+00   2.4 1.00e+00 3.39e-02f  1
 151 -8.8878017e+09 3.22e-15 8.45e+02  -1.0 8.47e+00   2.0 3.50e-02 6.77e-02f  1
 152 -8.8892366e+09 3.11e-15 9.62e+02  -1.0 2.08e+00   2.4 1.00e+00 1.24e-02f  1
 153 -8.9018459e+09 3.05e-15 9.25e+02  -1.0 1.06e+01   1.9 2.38e-02 3.70e-02f  1
 154 -8.9063400e+09 3.16e-15 9.85e+02  -1.0 2.33e+00   2.3 1.00e+00 3.79e-02f  1
 155 -8.9222146e+09 3.05e-15 9.40e+02  -1.0 1.19e+01   1.9 3.83e-02 4.35e-02f  1
 156 -8.9299900e+09 3.05e-15 9.25e+02  -1.0 2.60e+00   2.3 1.00e+00 6.33e-02f  1
 157 -8.9427777e+09 3.11e-15 8.93e+02  -1.0 1.73e+01   1.8 7.04e-03 3.17e-02f  1
 158 -8.9438782e+09 3.22e-15 9.06e+02  -1.0 3.02e+00   2.2 6.38e-01 8.54e-03f  1
 159 -8.9545359e+09 3.50e-15 8.83e+02  -1.0 2.61e+01   1.8 2.21e-03 2.30e-02f  1
iter    objective    inf_pr   inf_du lg(mu)  ||d||  lg(rg) alpha_du alpha_pr  ls
 160 -8.9552711e+09 3.83e-15 8.98e+02  -1.0 3.53e+00   2.2 4.52e-01 5.33e-03f  1
 161 -8.9639033e+09 3.55e-15 8.82e+02  -1.0 5.56e+01   1.7 2.06e-03 1.63e-02f  1
 162 -8.9651513e+09 3.61e-15 8.86e+02  -1.0 3.97e+00   2.1 3.46e-01 8.65e-03f  1
 163 -8.9710236e+09 3.50e-15 8.49e+02  -1.0 1.18e+00   2.6 1.00e+00 1.00e-01f  1
 164 -8.9820015e+09 3.22e-15 8.08e+02  -1.0 4.48e+00   2.1 2.09e-01 7.45e-02f  1
 165 -8.9858812e+09 3.22e-15 7.97e+02  -1.0 1.29e+00   2.5 1.00e+00 6.62e-02f  1
 166 -8.9986427e+09 3.55e-15 7.37e+02  -1.0 4.98e+00   2.0 1.43e-01 8.35e-02f  1
 167 -9.0056269e+09 3.11e-15 6.71e+02  -1.0 1.41e+00   2.5 1.00e+00 1.17e-01f  1
 168 -9.0173324e+09 3.11e-15 6.19e+02  -1.0 6.57e+00   2.0 5.28e-02 7.36e-02f  1
 169 -9.0197612e+09 2.94e-15 6.14e+02  -1.0 1.74e+00   2.4 7.06e-01 4.03e-02f  1
iter    objective    inf_pr   inf_du lg(mu)  ||d||  lg(rg) alpha_du alpha_pr  ls
 170 -9.0262776e+09 3.61e-15 5.89e+02  -1.0 7.85e+00   1.9 2.50e-02 3.83e-02f  1
 171 -9.0269657e+09 3.66e-15 6.64e+02  -1.0 1.87e+00   2.4 1.00e+00 1.10e-02f  1
 172 -9.0403431e+09 3.61e-15 6.09e+02  -1.0 1.05e+01   1.9 1.10e-02 7.19e-02f  1
 173 -9.0407180e+09 3.22e-15 6.17e+02  -1.0 2.23e+00   2.3 3.94e-01 5.64e-03f  1
 174 -9.0459831e+09 3.39e-15 6.00e+02  -1.0 1.44e+01   1.8 2.15e-02 2.56e-02f  1
 175 -9.0465262e+09 3.89e-15 6.21e+02  -1.0 2.59e+00   2.3 1.00e+00 7.74e-03f  1
 176 -9.0516993e+09 4.16e-15 6.06e+02  -1.0 1.98e+01   1.8 1.74e-02 2.31e-02f  1
 177 -9.0528524e+09 3.89e-15 5.97e+02  -1.0 2.50e+00   2.2 1.00e+00 1.58e-02f  1
 178 -9.0731870e+09 3.55e-15 5.45e+02  -1.0 9.50e+00   1.7 3.30e-02 8.77e-02f  1
 179 -9.0780677e+09 3.61e-15 5.00e+02  -1.0 2.46e+00   2.2 6.44e-01 6.21e-02f  1
iter    objective    inf_pr   inf_du lg(mu)  ||d||  lg(rg) alpha_du alpha_pr  ls
 180 -9.0873581e+09 3.11e-15 4.85e+02  -1.0 1.29e+01   1.7 9.48e-03 3.24e-02f  1
 181 -9.0887016e+09 3.55e-15 4.78e+02  -1.0 2.76e+00   2.1 4.15e-01 1.53e-02f  1
 182 -9.0975717e+09 3.16e-15 4.65e+02  -1.0 1.92e+01   1.6 3.22e-03 2.44e-02f  1
 183 -9.0985241e+09 3.28e-15 4.87e+02  -1.0 3.27e+00   2.1 7.72e-01 9.58e-03f  1
 184 -9.1073745e+09 3.55e-15 4.76e+02  -1.0 3.22e+01   1.6 7.24e-03 1.90e-02f  1
 185 -9.1086232e+09 3.39e-15 7.12e+02  -1.0 3.94e+00   2.0 1.00e+00 1.14e-02f  1
 186 -9.1178010e+09 2.89e-15 5.98e+02  -1.0 1.21e+00   2.4 1.00e+00 2.24e-01f  1
 187 -9.1269398e+09 2.94e-15 6.13e+02  -1.0 4.35e+00   2.0 6.17e-01 7.57e-02f  1
 188 -9.1380602e+09 2.39e-15 4.45e+02  -1.0 1.35e+00   2.4 1.00e+00 2.49e-01f  1
 189 -9.1469462e+09 2.16e-15 4.50e+02  -1.0 4.85e+00   1.9 4.14e-01 6.31e-02f  1
iter    objective    inf_pr   inf_du lg(mu)  ||d||  lg(rg) alpha_du alpha_pr  ls
 190 -9.1523167e+09 2.16e-15 3.94e+02  -1.0 1.45e+00   2.3 1.00e+00 1.09e-01f  1
 191 -9.1650933e+09 2.22e-15 3.87e+02  -1.0 4.66e+00   1.8 3.53e-01 7.96e-02f  1
 192 -9.1705004e+09 2.28e-15 3.57e+02  -1.0 1.32e+00   2.3 1.00e+00 9.90e-02f  1
 193 -9.1827422e+09 2.33e-15 4.10e+02  -1.0 5.33e+00   1.8 3.79e-01 6.80e-02f  1
 194 -9.1929328e+09 2.22e-15 5.27e+02  -1.0 1.47e+00   2.2 1.00e+00 1.71e-01f  1
 195 -9.2036509e+09 2.44e-15 5.38e+02  -1.0 7.16e+00   1.7 3.01e-01 5.16e-02f  1
 196 -9.2097414e+09 2.11e-15 5.57e+02  -1.0 1.68e+00   2.2 1.00e+00 9.35e-02f  1
 197 -9.2222179e+09 2.16e-15 5.49e+02  -1.0 9.11e+00   1.7 2.45e-01 5.28e-02f  1
 198 -9.2279153e+09 2.44e-15 5.86e+02  -1.0 1.96e+00   2.1 1.00e+00 7.97e-02f  1
 199 -9.2397927e+09 2.22e-15 5.81e+02  -1.0 1.16e+01   1.6 1.93e-01 4.37e-02f  1
iter    objective    inf_pr   inf_du lg(mu)  ||d||  lg(rg) alpha_du alpha_pr  ls
 200 -9.2460387e+09 2.33e-15 5.86e+02  -1.0 2.15e+00   2.1 1.00e+00 7.97e-02f  1
 201 -9.2582584e+09 2.22e-15 5.78e+02  -1.0 1.81e+01   1.6 1.30e-01 3.83e-02f  1
 202 -9.2624445e+09 2.50e-15 5.89e+02  -1.0 2.55e+00   2.0 1.00e+00 4.84e-02f  1
 203 -9.2719757e+09 2.50e-15 5.88e+02  -1.0 2.90e+01   1.5 9.13e-02 2.59e-02f  1
 204 -9.2757497e+09 2.44e-15 6.43e+02  -1.0 2.81e+00   2.0 1.00e+00 4.06e-02f  1
 205 -9.2854345e+09 2.78e-15 6.31e+02  -1.0 6.86e+01   1.5 3.53e-02 2.14e-02f  1
 206 -9.2862885e+09 2.66e-15 6.38e+02  -1.0 3.25e+00   1.9 1.00e+00 8.57e-03f  1
 207 -9.2999699e+09 2.16e-15 3.59e+02  -1.0 1.01e+00   2.3 1.00e+00 3.91e-01f  1
 208 -9.3056038e+09 1.83e-15 4.20e+02  -1.0 3.81e+00   1.9 1.00e+00 5.99e-02f  1
 209 -9.3118304e+09 2.22e-15 4.57e+02  -1.0 1.15e+00   2.3 1.00e+00 1.99e-01f  1
iter    objective    inf_pr   inf_du lg(mu)  ||d||  lg(rg) alpha_du alpha_pr  ls
 210 -9.3198894e+09 2.16e-15 4.04e+02  -1.0 4.16e+00   1.8 8.67e-01 9.78e-02f  1
 211 -9.3251230e+09 1.83e-15 4.40e+02  -1.0 1.26e+00   2.2 1.00e+00 1.88e-01f  1
 212 -9.3316288e+09 1.94e-15 3.88e+02  -1.0 5.48e+00   1.8 6.95e-01 9.30e-02f  1
 213 -9.3342959e+09 1.83e-15 3.99e+02  -1.0 1.36e+00   2.2 1.00e+00 1.18e-01f  1
 214 -9.3387077e+09 2.16e-15 3.81e+02  -1.0 5.43e+00   1.7 7.84e-01 8.03e-02f  1
 215 -9.3420723e+09 1.89e-15 4.29e+02  -1.0 1.50e+00   2.1 1.00e+00 1.83e-01f  1
 216 -9.3456474e+09 2.00e-15 3.90e+02  -1.0 6.09e+00   1.7 7.66e-01 8.11e-02f  1
 217 -9.3464782e+09 2.16e-15 3.88e+02  -1.0 1.65e+02   1.2 2.97e-02 4.95e-03f  1
 218 -9.3479583e+09 2.44e-15 4.77e+02  -1.0 4.28e+00   1.6 1.00e+00 3.89e-02f  1
 219 -9.3536698e+09 1.78e-15 2.83e+02  -1.0 1.36e+00   2.0 1.00e+00 4.22e-01f  1
iter    objective    inf_pr   inf_du lg(mu)  ||d||  lg(rg) alpha_du alpha_pr  ls
 220 -9.3569443e+09 1.94e-15 2.53e+02  -1.0 4.91e+00   1.6 8.46e-01 9.60e-02f  1
 221 -9.3588299e+09 1.78e-15 2.21e+02  -1.0 1.55e+00   2.0 1.00e+00 1.61e-01f  1
 222 -9.3619813e+09 1.83e-15 2.13e+02  -1.0 5.32e+00   1.5 6.37e-01 9.89e-02f  1
 223 -9.3634628e+09 1.78e-15 2.35e+02  -1.0 1.65e+00   1.9 1.00e+00 1.42e-01f  1
 224 -9.3659890e+09 2.05e-15 2.30e+02  -1.0 6.07e+00   1.5 3.41e-01 8.47e-02f  1
 225 -9.3669568e+09 2.05e-15 2.48e+02  -1.0 1.75e+00   1.9 1.00e+00 9.88e-02f  1
 226 -9.3690767e+09 1.83e-15 2.39e+02  -1.0 7.01e+00   1.4 1.88e-01 7.57e-02f  1
 227 -9.3697553e+09 2.00e-15 2.52e+02  -1.0 1.91e+00   1.8 1.00e+00 7.36e-02f  1
 228 -9.3725514e+09 2.00e-15 2.29e+02  -1.0 8.56e+00   1.4 1.00e-01 9.40e-02f  1
 229 -9.3728187e+09 2.33e-15 2.14e+02  -1.0 2.19e+00   1.8 1.00e+00 2.87e-02f  1
iter    objective    inf_pr   inf_du lg(mu)  ||d||  lg(rg) alpha_du alpha_pr  ls
 230 -9.3744707e+09 2.11e-15 2.03e+02  -1.0 1.03e+01   1.3 5.60e-02 5.37e-02f  1
 231 -9.3748730e+09 2.11e-15 2.27e+02  -1.0 2.37e+00   1.7 1.00e+00 4.18e-02f  1
 232 -9.3766960e+09 2.44e-15 2.15e+02  -1.0 1.13e+01   1.3 5.45e-02 5.25e-02f  1
 233 -9.3777685e+09 2.66e-15 2.04e+02  -1.0 2.30e+00   1.7 1.00e+00 1.01e-01f  1
 234 -9.3790691e+09 2.39e-15 1.96e+02  -1.0 1.77e+01   1.2 9.67e-03 4.01e-02f  1
 235 -9.3791805e+09 2.61e-15 1.93e+02  -1.0 2.50e+00   1.6 4.07e-01 1.16e-02f  1
 236 -9.3798196e+09 2.72e-15 1.89e+02  -1.0 3.47e+01   1.2 4.53e-03 2.16e-02f  1
 237 -9.3801060e+09 2.72e-15 1.83e+02  -1.0 2.82e+00   1.6 4.45e-01 3.45e-02f  1
 238 -9.3806111e+09 2.94e-15 1.84e+02  -1.0 9.58e-01   2.0 1.00e+00 1.69e-01f  1
 239 -9.3809937e+09 2.11e-15 1.69e+02  -1.0 3.15e+00   1.5 4.52e-01 7.91e-02f  1
iter    objective    inf_pr   inf_du lg(mu)  ||d||  lg(rg) alpha_du alpha_pr  ls
 240 -9.3812332e+09 2.28e-15 1.76e+02  -1.0 1.01e+00   2.0 1.00e+00 1.39e-01f  1
 241 -9.3816179e+09 2.66e-15 1.50e+02  -1.0 3.54e+00   1.5 5.12e-01 1.47e-01f  1
 242 -9.3817086e+09 2.11e-15 1.55e+02  -1.0 1.16e+00   1.9 1.00e+00 9.32e-02f  1
 243 -9.3819417e+09 1.83e-15 1.41e+02  -1.0 3.92e+00   1.4 4.27e-01 1.17e-01f  1
 244 -9.3820102e+09 2.11e-15 1.61e+02  -1.0 1.01e+00   1.8 1.00e+00 9.00e-02f  1
 245 -9.3823075e+09 2.22e-15 1.36e+02  -1.0 5.32e+00   1.4 7.75e-01 1.56e-01f  1
 246 -9.3823519e+09 2.66e-15 1.34e+02  -1.0 1.24e+00   1.8 1.00e+00 6.41e-02f  1
 247 -9.3824807e+09 2.50e-15 1.34e+02  -1.0 6.61e+00   1.3 6.50e-01 7.48e-02f  1
 248 -9.3825810e+09 2.00e-15 1.63e+02  -1.0 1.37e+00   1.7 1.00e+00 1.94e-01f  1
 249 -9.3826815e+09 2.00e-15 1.53e+02  -1.0 8.19e+00   1.3 4.65e-01 6.55e-02f  1
iter    objective    inf_pr   inf_du lg(mu)  ||d||  lg(rg) alpha_du alpha_pr  ls
 250 -9.3828225e+09 1.78e-15 1.39e+02  -1.0 1.51e+00   1.7 1.00e+00 3.02e-01f  1
 251 -9.3829031e+09 1.78e-15 1.34e+02  -1.0 1.09e+01   1.2 4.28e-01 4.38e-02f  1
 252 -9.3829759e+09 1.78e-15 1.63e+02  -1.0 1.23e+00   1.6 1.00e+00 1.71e-01f  1
 253 -9.3831717e+09 1.83e-15 1.49e+02  -1.0 8.12e+00   1.2 3.38e-01 9.36e-02f  1
 254 -9.3832217e+09 2.11e-15 1.36e+02  -1.0 1.47e+00   1.6 1.00e+00 1.02e-01f  1
 255 -9.3833256e+09 2.33e-15 1.27e+02  -1.0 9.47e+00   1.1 3.45e-01 6.61e-02f  1
 256 -9.3833879e+09 1.78e-15 1.10e+02  -1.0 1.68e+00   1.5 1.00e+00 2.37e-01f  1
 257 -9.3834494e+09 1.94e-15 1.06e+02  -1.0 1.51e+01   1.1 2.62e-01 4.44e-02f  1
 258 -9.3835196e+09 1.78e-15 1.02e+02  -1.0 2.27e+00   1.5 1.00e+00 2.81e-01f  1
 259 -9.3835793e+09 1.89e-15 9.87e+01  -1.0 2.45e+01   1.0 9.81e-02 3.64e-02f  1
iter    objective    inf_pr   inf_du lg(mu)  ||d||  lg(rg) alpha_du alpha_pr  ls
 260 -9.3835841e+09 2.00e-15 1.53e+02  -1.0 1.69e+00   1.4 1.00e+00 3.23e-02f  1
 261 -9.3836762e+09 2.33e-15 1.48e+02  -1.0 5.45e+01   1.0 5.79e-02 3.95e-02f  1
 262 -9.3836783e+09 2.44e-15 1.46e+02  -1.0 2.46e+00   1.4 1.00e+00 1.23e-02f  1
 263 -9.3837435e+09 1.78e-15 4.52e+01  -1.0 6.93e-01   1.8 1.00e+00 1.00e+00f  1
 264 -9.3837600e+09 1.78e-15 4.92e+01  -1.0 3.35e+00   1.3 1.00e+00 1.46e-01f  1
 265 -9.3837601e+09 1.78e-15 1.21e+02  -1.0 1.04e-01   1.8 1.00e+00 2.41e-02f  2
 266 -9.3837646e+09 1.78e-15 9.27e+00  -1.0 4.79e-01   1.3 1.00e+00 1.00e+00f  1
 267 -9.3837674e+09 1.78e-15 1.12e+01  -1.0 2.17e-01   1.7 1.00e+00 1.00e+00f  1
 268 -9.3837942e+09 1.78e-15 2.26e+01  -1.0 1.32e+00   1.2 1.00e+00 1.00e+00f  1
 269 -9.3838127e+09 1.78e-15 2.80e+01  -1.0 6.11e-01   1.7 1.00e+00 1.00e+00f  1
iter    objective    inf_pr   inf_du lg(mu)  ||d||  lg(rg) alpha_du alpha_pr  ls
 270 -9.3838961e+09 1.78e-15 4.50e+01  -1.0 4.27e+00   1.2 7.13e-01 4.57e-01f  1
 271 -9.3838972e+09 1.78e-15 4.50e+01  -1.0 1.16e+00   1.6 1.00e+00 1.73e-02f  1
 272 -9.3839182e+09 1.78e-15 7.61e+01  -1.0 7.07e+00   1.1 6.62e-01 1.06e-01f  1
 273 -9.3839183e+09 1.94e-15 1.32e+02  -1.0 2.04e-01    -  1.00e+00 1.85e-02f  2
 274 -9.3839183e+09 1.78e-15 9.17e-13  -1.0 2.03e-03    -  1.00e+00 1.00e+00f  1
 275 -9.3842529e+09 1.78e-15 1.14e-01  -2.5 4.42e-02    -  1.00e+00 8.58e-01f  1
Reallocating memory for MA57: lfact (10692116)
 276 -9.3843083e+09 1.78e-15 8.96e-13  -2.5 1.52e-03    -  1.00e+00 1.00e+00f  1
Reallocating memory for MA57: lfact (11569893)
 277 -9.3843197e+09 1.78e-15 6.09e-05  -5.7 9.09e-04    -  1.00e+00 9.97e-01f  1
Reallocating memory for MA57: lfact (15865591)
 278 -9.3843197e+09 1.78e-15 9.25e-13  -5.7 7.62e-07    -  1.00e+00 1.00e+00f  1
 279 -9.3843197e+09 1.78e-15 1.08e-12  -8.6 6.02e-07    -  1.00e+00 1.00e+00f  1

Number of Iterations....: 279

                                   (scaled)                 (unscaled)
Objective...............:  -1.7874894646797385e+07   -9.3843196895686264e+09
Dual infeasibility......:   1.0822143100103973e-12    5.6816251275545861e-10
Constraint violation....:   1.7763568394002505e-15    1.7763568394002505e-15
Complementarity.........:   2.5073222302340712e-09    1.3163441708728873e-06
Overall NLP error.......:   9.4850047214748082e-10    1.3163441708728873e-06


Number of objective function evaluations             = 286
Number of objective gradient evaluations             = 280
Number of equality constraint evaluations            = 286
Number of inequality constraint evaluations          = 0
Number of equality constraint Jacobian evaluations   = 280
Number of inequality constraint Jacobian evaluations = 0
Number of Lagrangian Hessian evaluations             = 279
Total CPU secs in IPOPT (w/o function evaluations)   =    293.091
Total CPU secs in NLP function evaluations           =      4.566

EXIT: Optimal Solution Found.

************************ CUTEst statistics ************************


 Package used            :  IPOPT
 Problem                 :  NCVXQP4   
 # variables             =           10000
 # constraints           =            2500
 # objective functions   =        0.5670000E+03
 # objective gradients   =        0.2810000E+03
 # objective Hessians    =        0.2800000E+03
 # Hessian-vector prdct  =        0.0000000E+00
 # constraints functions =        0.5680000E+03
 # constraints gradients =        0.2820000E+03
 # constraints Hessians  =        0.2800000E+03
 Exit code               =               0
 Final f                 =       -9.3843196895686264D+09
 Bounds feasibility      =        9.9998546332358274D-08
 Set up time             =            0.88 seconds
 Solve time              =          465.94 seconds


******************************************************************

